NAME : zqloutput/eax-hard-simple-rescaleandround/50-5.tsp
TYPE : TSP
DIMENSION : 50
EDGE_WEIGHT_TYPE : EUC_2D
NODE_COORD_SECTION
1 501843 855135
2 850598 135363
3 270732 263705
4 230566 452113
5 624340 90712
6 193100 682586
7 10658 743443
8 729930 340429
9 336382 568845
10 353767 158875
11 800176 650573
12 256980 723726
13 15069 684454
14 978839 488533
15 749601 365628
16 542731 691838
17 561984 427414
18 922556 825054
19 149816 548689
20 522102 532080
21 870325 920347
22 118020 359747
23 149673 671640
24 955397 740367
25 493096 598347
26 195421 614880
27 39176 64135
28 465321 675331
29 299591 931589
30 904673 157960
31 307211 13775
32 991688 701853
33 748607 597854
34 218409 287921
35 412449 756758
36 374413 690658
37 834999 21054
38 183137 908875
39 363908 843467
40 217744 890515
41 361396 978914
42 785532 732996
43 63864 16850
44 297801 411882
45 163127 503089
46 7897 451048
47 977948 603308
48 888428 806706
49 850679 610187
50 626183 858511
EOF
